122 300 195 190 162 199 158 155 200 159 176 174 172 170 180 189 152 198 194 185 190 169 189 170 187 155 166 181 166 161 167 185 151 161 200 188 159 157 193 184 191 168 182 187 162 162 175 189 184 169 198 198 188 187 167 199 166 157 180 156 169 197 192 170 157 165 182 192 172 175 200 188 167 181 174 180 193 200 168 150 193 166 199 154 177 190 153 167 198 183 199 166 179 190 160 160 154 192 176 150 191 175 162 158 181 187 188 173 160 180 199 152 170 171 156 171 160 159 189 157 192 187 198 195 